This is MiniSat 2.0 beta
============================[ Problem Statistics ]=============================
|                                                                             |
|  Number of variables:  30                                                   |
|  Number of clauses:    81                                                   |
|  Parsing time:         0.00         s                                       |
============================[ Search Statistics ]==============================
| Conflicts |          ORIGINAL         |          LEARNT          | Progress |
|           |    Vars  Clauses Literals |    Limit  Clauses Lit/Cl |          |
===============================================================================
|         0 |      24       75      240 |       25        0    nan |  0.000 % |
|       101 |      24       75      240 |       27       32      9 |  0.241 % |
===============================================================================
restarts              : 2
conflicts             : 202            (inf /sec)
decisions             : 256            (1.56 % random) (inf /sec)
propagations          : 1614           (inf /sec)
conflict literals     : 1591           (12.87 % deleted)
CPU time              : 0 s

